91 41 67 45 81 1 180 141 82 47 
132 154 112 110 54 70 135 150 117 172 100 198 
106 58 127 62 8 122 32 111 42 31 80 
57 35 28 109 107 174 9 129 119 197 
73 3 68 133 147 134 179 190 85 
140 87 166 167 25 182 14 168 78 121 37 
55 93 130 131 27 158 79 101 149 60 13 152 108 
20 128 43 7 72 89 97 52 175 56 
44 139 34 104 84 142 177 189 102 77 22 
115 162 66 11 156 126 123 160 75 
4 46 137 50 21 96 33 186 191 
196 19 99 187 69 116 64 105 183 
30 2 48 146 171 138 159 40 10 164 
15 199 12 136 88 194 90 103 185 
155 61 36 49 176 165 113 181 29 114 74 193 
145 26 143 5 24 144 192 
157 184 94 38 95 6 23 188 
53 92 151 125 118 200 18 
17 195 169 98 178 59 
63 120 51 86 124 161 16 173 83 65 
153 71 39 148 
163 170 
76 

